9 19
1 2 1
1 3 0
1 4 0
1 5 0
1 6 1
1 7 0
1 8 1
1 9 1
2 3 0
2 4 0
2 5 0
2 6 1
2 7 1
2 8 0
2 9 1
3 4 1
3 5 0
3 6 1
3 7 1
3 8 1
3 9 1
4 5 0
4 6 1
4 7 0
4 8 1
4 9 0
5 6 0
5 7 0
5 8 1
5 9 0
6 7 0
6 8 1
6 9 1
7 8 0
7 9 1
8 9 1
